%mem=1000mb
%nprocs=1
#P PM6=(print,zero)

the title

0 1
H      0.000000000000      1.431390207000      0.986041184000
O      0.000000000000      0.000000000000     -0.124238453000
H      0.000000000000     -1.431390207000      0.986041184000


@params.dat

